vb6/samp1/samp1.sol
* -----------------------------------------------------------------
*                    SOLUTION REPORT                               
* 
* LINDO API Version 7.0.1.072 built on Feb 21 2011 22:42:21
* Barrier Solver Version 6.0.0.087 mosek.h ver:6.0.0.102, Nonlinear Solver Version 3.14U
* Platform Windows x86
*
* Copyright (c) 2011 by LINDO Systems, Inc. Licensed material,
* all rights reserved. Copying except as authorized in license 
* agreement is prohibited.
* -----------------------------------------------------------------
* 
* PROBLEM NAME
* 
*   LP GLOBAL OPTIMUM FOUND
* 
*   ITERATIONS BY SIMPLEX METHOD =           2
*   ITERATIONS BY BARRIER METHOD =           0
*   ITERATIONS BY NLP METHOD     =           0
*   TIME ELAPSED (s)             =           0
* 
*   OBJECTIVE FUNCTION VALUE
* 
*    1)              2100.000000000
* 
* VARIABLES                      VALUE             REDUCED COST            BASIS STATUS

  C0000000                60.000000000              0.000000000          LS_BASTYPE_BAS 
  C0000001                30.000000000              0.000000000          LS_BASTYPE_BAS 

* CONSTRAINTS        SLACK OR SURPLUS              DUAL PRICES             BASIS STATUS

  R0000000                 0.000000000             15.000000000          LS_BASTYPE_ATLO
  R0000001                 0.000000000              5.000000000          LS_BASTYPE_ATLO
  R0000002                20.000000000              0.000000000          LS_BASTYPE_BAS 

* END OF REPORT
